class_tutorial/ex1.ampl.output
GLPSOL: GLPK LP/MIP Solver, v4.48
Parameter(s) specified in the command line:
 --math ex1.ampl
Reading model section from ex1.ampl...
ex1.ampl:14: warning: final NL missing before end of file
14 lines were read
Generating obj...
Generating c1...
Generating c2...
Generating c3...
Generating c4...
Model has been successfully generated
GLPK Simplex Optimizer, v4.48
5 rows, 2 columns, 8 non-zeros
Preprocessing...
2 rows, 2 columns, 4 non-zeros
Scaling...
 A: min|aij| =  1.000e+00  max|aij| =  3.000e+00  ratio =  3.000e+00
Problem data seem to be well scaled
Constructing initial basis...
Size of triangular part = 2
*     0: obj =   0.000000000e+00  infeas =  0.000e+00 (0)
*     3: obj =   2.800000000e+01  infeas =  0.000e+00 (0)
OPTIMAL SOLUTION FOUND
Time used:   0.0 secs
Memory used: 0.1 Mb (114770 bytes)
Display statement at line 12
x1.val = 6
Display statement at line 13
x2.val = 11
Model has been successfully processed
